min: c;

c = 4.18769816954078 * u3_t10_h0 + 3.93452563401855 * u3_t10_h1 + 3.92447896545527 * u3_t4_h2 + 3.92447896545527 * u3_t10_h2 + 3.36456230969725 * u3_t4_h3 + 3.36456230969725 * u3_t10_h3 + 3.08645707645783 * u3_t4_h4 + 3.08645707645783 * u3_t10_h4 + 3.58453817480728 * u3_t4_h5 + 3.58453817480728 * u3_t10_h5 + 3.49922561145857 * u3_t4_h6 + 3.49922561145857 * u3_t10_h6 + 4.40143526202266 * u3_t4_h7 + 4.40143526202266 * u3_t9_h7 + 4.40143526202266 * u3_t10_h7 + 5.14716844275582 * u3_t4_h8 + 5.14716844275582 * u3_t9_h8 + 5.31289168102192 * u3_t4_h9 + 5.31289168102192 * u3_t9_h9 + 5.45200382040061 * u3_t4_h10 + 5.45200382040061 * u3_t6_h10 + 5.45200382040061 * u3_t9_h10 + 4.15640528850409 * u3_t3_h11 + 4.15640528850409 * u3_t4_h11 + 4.15640528850409 * u3_t6_h11 + 4.15640528850409 * u3_t9_h11 + 6.35948131717337 * u3_t3_h12 + 6.35948131717337 * u3_t4_h12 + 6.35948131717337 * u3_t6_h12 + 6.35948131717337 * u3_t9_h12 + 4.16797429509129 * u3_t3_h13 + 4.16797429509129 * u3_t4_h13 + 4.16797429509129 * u3_t5_h13 + 4.16797429509129 * u3_t6_h13 + 4.16797429509129 * u3_t9_h13 + 5.80626981458412 * u3_t3_h14 + 5.80626981458412 * u3_t4_h14 + 5.80626981458412 * u3_t5_h14 + 5.80626981458412 * u3_t6_h14 + 5.80626981458412 * u3_t9_h14 + 5.87162331023264 * u3_t2_h15 + 5.87162331023264 * u3_t3_h15 + 5.87162331023264 * u3_t4_h15 + 5.87162331023264 * u3_t5_h15 + 5.87162331023264 * u3_t6_h15 + 5.87162331023264 * u3_t9_h15 + 5.61406774419113 * u3_t2_h16 + 5.61406774419113 * u3_t4_h16 + 5.61406774419113 * u3_t5_h16 + 5.61406774419113 * u3_t6_h16 + 5.61406774419113 * u3_t9_h16 + 6.56620461049385 * u3_t2_h17 + 6.56620461049385 * u3_t4_h17 + 6.56620461049385 * u3_t6_h17 + 6.56620461049385 * u3_t9_h17 + 6.17375586095476 * u3_t2_h18 + 6.17375586095476 * u3_t6_h18 + 6.17375586095476 * u3_t9_h18 + 5.97020433925531 * u3_t2_h19 + 5.97020433925531 * u3_t9_h19 + 5.14203416966082 * u3_t1_h20 + 5.14203416966082 * u3_t2_h20 + 5.14203416966082 * u3_t8_h20 + 5.14203416966082 * u3_t9_h20 + 5.38009330766337 * u3_t1_h21 + 5.38009330766337 * u3_t2_h21 + 5.38009330766337 * u3_t7_h21 + 5.38009330766337 * u3_t8_h21 + 5.38009330766337 * u3_t9_h21 + 5.23886569223511 * u3_t1_h22 + 5.23886569223511 * u3_t7_h22 + 5.23886569223511 * u3_t8_h22 + 5.55751518213488 * u3_t1_h23 + 5.55751518213488 * u3_t7_h23 + 5.55751518213488 * u3_t8_h23;
0 <= u3_t1_h20 <= 1;
0 <= u3_t1_h21 <= 1;
0 <= u3_t1_h22 <= 1;
0 <= u3_t1_h23 <= 1;
u3_t1_h20 + u3_t1_h21 + u3_t1_h22 + u3_t1_h23 = 2;
0 <= u3_t2_h15 <= 1;
0 <= u3_t2_h16 <= 1;
0 <= u3_t2_h17 <= 1;
0 <= u3_t2_h18 <= 1;
0 <= u3_t2_h19 <= 1;
0 <= u3_t2_h20 <= 1;
0 <= u3_t2_h21 <= 1;
u3_t2_h15 + u3_t2_h16 + u3_t2_h17 + u3_t2_h18 + u3_t2_h19 + u3_t2_h20 + u3_t2_h21 = 3;
0 <= u3_t3_h11 <= 1;
0 <= u3_t3_h12 <= 1;
0 <= u3_t3_h13 <= 1;
0 <= u3_t3_h14 <= 1;
0 <= u3_t3_h15 <= 1;
u3_t3_h11 + u3_t3_h12 + u3_t3_h13 + u3_t3_h14 + u3_t3_h15 = 2;
0 <= u3_t4_h2 <= 1;
0 <= u3_t4_h3 <= 1;
0 <= u3_t4_h4 <= 1;
0 <= u3_t4_h5 <= 1;
0 <= u3_t4_h6 <= 1;
0 <= u3_t4_h7 <= 1;
0 <= u3_t4_h8 <= 1;
0 <= u3_t4_h9 <= 1;
0 <= u3_t4_h10 <= 1;
0 <= u3_t4_h11 <= 1;
0 <= u3_t4_h12 <= 1;
0 <= u3_t4_h13 <= 1;
0 <= u3_t4_h14 <= 1;
0 <= u3_t4_h15 <= 1;
0 <= u3_t4_h16 <= 1;
0 <= u3_t4_h17 <= 1;
u3_t4_h2 + u3_t4_h3 + u3_t4_h4 + u3_t4_h5 + u3_t4_h6 + u3_t4_h7 + u3_t4_h8 + u3_t4_h9 + u3_t4_h10 + u3_t4_h11 + u3_t4_h12 + u3_t4_h13 + u3_t4_h14 + u3_t4_h15 + u3_t4_h16 + u3_t4_h17 = 3;
0 <= u3_t5_h13 <= 1;
0 <= u3_t5_h14 <= 1;
0 <= u3_t5_h15 <= 1;
0 <= u3_t5_h16 <= 1;
u3_t5_h13 + u3_t5_h14 + u3_t5_h15 + u3_t5_h16 = 2;
0 <= u3_t6_h10 <= 1;
0 <= u3_t6_h11 <= 1;
0 <= u3_t6_h12 <= 1;
0 <= u3_t6_h13 <= 1;
0 <= u3_t6_h14 <= 1;
0 <= u3_t6_h15 <= 1;
0 <= u3_t6_h16 <= 1;
0 <= u3_t6_h17 <= 1;
0 <= u3_t6_h18 <= 1;
u3_t6_h10 + u3_t6_h11 + u3_t6_h12 + u3_t6_h13 + u3_t6_h14 + u3_t6_h15 + u3_t6_h16 + u3_t6_h17 + u3_t6_h18 = 2;
0 <= u3_t7_h21 <= 1;
0 <= u3_t7_h22 <= 1;
0 <= u3_t7_h23 <= 1;
u3_t7_h21 + u3_t7_h22 + u3_t7_h23 = 2;
0 <= u3_t8_h20 <= 1;
0 <= u3_t8_h21 <= 1;
0 <= u3_t8_h22 <= 1;
0 <= u3_t8_h23 <= 1;
u3_t8_h20 + u3_t8_h21 + u3_t8_h22 + u3_t8_h23 = 1;
0 <= u3_t9_h7 <= 1;
0 <= u3_t9_h8 <= 1;
0 <= u3_t9_h9 <= 1;
0 <= u3_t9_h10 <= 1;
0 <= u3_t9_h11 <= 1;
0 <= u3_t9_h12 <= 1;
0 <= u3_t9_h13 <= 1;
0 <= u3_t9_h14 <= 1;
0 <= u3_t9_h15 <= 1;
0 <= u3_t9_h16 <= 1;
0 <= u3_t9_h17 <= 1;
0 <= u3_t9_h18 <= 1;
0 <= u3_t9_h19 <= 1;
0 <= u3_t9_h20 <= 1;
0 <= u3_t9_h21 <= 1;
u3_t9_h7 + u3_t9_h8 + u3_t9_h9 + u3_t9_h10 + u3_t9_h11 + u3_t9_h12 + u3_t9_h13 + u3_t9_h14 + u3_t9_h15 + u3_t9_h16 + u3_t9_h17 + u3_t9_h18 + u3_t9_h19 + u3_t9_h20 + u3_t9_h21 = 2;
0 <= u3_t10_h0 <= 1;
0 <= u3_t10_h1 <= 1;
0 <= u3_t10_h2 <= 1;
0 <= u3_t10_h3 <= 1;
0 <= u3_t10_h4 <= 1;
0 <= u3_t10_h5 <= 1;
0 <= u3_t10_h6 <= 1;
0 <= u3_t10_h7 <= 1;
u3_t10_h0 + u3_t10_h1 + u3_t10_h2 + u3_t10_h3 + u3_t10_h4 + u3_t10_h5 + u3_t10_h6 + u3_t10_h7 = 3;
